(declare-const x0 Bool)
(declare-const x1 Bool)
(declare-const x2 Bool)
(declare-const x3 Bool)
(declare-const x4 Bool)
(declare-const x5 Bool)
(declare-const x6 Bool)
(declare-const x7 Bool)
(declare-const x8 Bool)
(declare-const x9 Bool)
(declare-const x10 Bool)
(declare-const x11 Bool)
(declare-const x12 Bool)
(declare-const x13 Bool)
(declare-const x14 Bool)
(declare-const x15 Bool)
(declare-const x16 Bool)
(declare-const x17 Bool)
(declare-const x18 Bool)
(declare-const x19 Bool)
(declare-const x20 Bool)
(declare-const x21 Bool)
(declare-const x22 Bool)
(declare-const x23 Bool)
(declare-const x24 Bool)
(declare-const x25 Bool)
(declare-const y0 Real)
(declare-const y1 Real)
(declare-const y2 Real)
(declare-const y3 Real)
(declare-const y4 Real)
(declare-const y5 Real)
(declare-const y6 Real)
(declare-const y7 Real)
(declare-const y8 Real)
(declare-const y9 Real)
(declare-const y10 Real)
(declare-const y11 Real)
(declare-const y12 Real)
(declare-const y13 Real)
(declare-const y14 Real)
(declare-const y15 Real)
(declare-const y16 Real)
(declare-const y17 Real)
(assert (or false (and (or x7 false) (and (< y2 y3) (and false x4)))))
(assert (< y17 70))
(assert (or false (or x4 true)))
(assert (< (+ 95 y4) 3))
(assert (and (= y5 y5) (or (< y14 59) (or (and true x19) (= x1 true)))))
(assert (< y6 (+ 89 (+ 63 10))))
(assert (= (< y0 31) (< 9 y0)))
(assert x0)
(assert (= 71 y14))
(assert (and (= (+ y13 y1) 92) false))
(check-sat)
